\* Minimize *\
Minimize
MinimiserPoids: 20 produits__ceramic + 16 produits__fer + 6 produits__plastic
Subject To
noteMax: produits__ceramic + produits__fer + produits__plastic = 20
resistance: 0.6 produits__ceramic + 0.9 produits__fer + 0.15 produits__plastic
 >= 10
End
